set C := 1 2 3 4 5 6 7 8 9 10;

param q :=
    1 16.05
    2 27.96
    3 40.01
    4 21.42
    5 34.77
    6 31.37
    7 45.23
    8 36.59
    9 29.00
    10 40.65;
param ca :=
    1 164.56
    2 168.64
    3 232.75
    4 245.65
    5 220.88
    6 195.60
    7 215.43
    8 234.40
    9 160.75
    10 171.62;
param cc :=
    1 39.09
    2 42.07
    3 49.29
    4 34.53
    5 37.37
    6 33.38
    7 30.11
    8 31.71
    9 34.73
    10 44.38;
param cp :=
    1 7.39
    2 6.37
    3 10.99
    4 9.34
    5 9.16
    6 8.54
    7 9.46
    8 10.43
    9 8.44
    10 5.41;
param sMin := 0;
param sMax := 80;

namespace t0
{
    set A := 1;
    set AAnt := 2;
    set P := 3 4 5 6 7 8 9 10;
    set S := 1;

    param p :=
        1 1.0000000000;
    param d :=
        1 37.55;
    param h := 1;
    param s0 := 20;
}

namespace t1
{
    set AAnt := 1;
    set P := 3 4 5 6 7 8 9 10;
    set PAnt := 3 4 5 6 7 8 9 10;
    set S := 1 2 3;

    param p :=
        1 0.4212778984
        2 0.0863615279
        3 0.4923605737;
    param d :=
        1 16.56
        2 34.23
        3 48.14;
    param h := 1;
}

namespace t2
{
    set A2Ant := 1;
    set P := 3 4 5 6 7 8 9 10;
    set PAnt := 3 4 5 6 7 8 9 10;
    set S := 1 2 3;

    param p :=
        1 0.3358318523
        2 0.0443932929
        3 0.6197748548;
    param d :=
        1 44.40
        2 12.14
        3 40.75;
    param h := 1;
}

namespace t3
{
    set P := 3 4 5 6 7 8 9 10;
    set PAnt := 3 4 5 6 7 8 9 10;
    set S := 1 2 3;

    param p :=
        1 0.1722771581
        2 0.1516903675
        3 0.6760324744;
    param d :=
        1 40.67
        2 32.92
        3 16.15;
    param h := 1;
}

namespace t4
{
    set PAnt := 3 4 5 6 7 8 9 10;
    set S := 1 2 3;

    param p :=
        1 0.3401954233
        2 0.4163488358
        3 0.2434557409;
    param d :=
        1 48.60
        2 49.75
        3 18.50;
    param h := 1;
}
